; Options: -in -smt2
(set-option :produce-unsat-assumptions true)

(declare-fun start!2291 () Bool)

(assert start!2291)

(declare-fun b!11847 () Bool)

(declare-fun lt!6099 () (_ BitVec 32))

(declare-datatypes ((Unit!1316 0))(
  ( (Unit!1317) )
))
(declare-datatypes ((array!870 0))(
  ( (array!871 (arr!381 (Array (_ BitVec 32) (_ BitVec 32))) (size!381 (_ BitVec 32))) )
))
(declare-datatypes ((tuple4!244 0))(
  ( (tuple4!245 (_1!291 Unit!1316) (_2!291 (_ BitVec 32)) (_3!228 array!870) (_4!122 (_ BitVec 32))) )
))
(declare-fun e!6713 () tuple4!244)

(declare-datatypes ((array!872 0))(
  ( (array!873 (arr!382 (Array (_ BitVec 32) (_ FloatingPoint 11 53))) (size!382 (_ BitVec 32))) )
))
(declare-fun q!93 () array!872)

(declare-datatypes ((tuple4!246 0))(
  ( (tuple4!247 (_1!292 Unit!1316) (_2!292 array!870) (_3!229 (_ BitVec 32)) (_4!123 (_ FloatingPoint 11 53))) )
))
(declare-fun lt!6101 () tuple4!246)

(declare-fun jz!59 () (_ BitVec 32))

(declare-fun lt!6093 () (_ BitVec 32))

(declare-fun computeModuloWhile!3 ((_ BitVec 32) array!872 (_ BitVec 32) array!870 (_ BitVec 32)) tuple4!244)

(assert (=> b!11847 (= e!6713 (computeModuloWhile!3 jz!59 q!93 lt!6099 (_2!292 lt!6101) lt!6093))))

(declare-fun lt!6102 () (_ BitVec 32))

(declare-datatypes ((tuple3!212 0))(
  ( (tuple3!213 (_1!293 Unit!1316) (_2!293 array!870) (_3!230 (_ BitVec 32))) )
))
(declare-fun e!6706 () tuple3!212)

(declare-fun lt!6100 () tuple4!244)

(declare-fun b!11848 () Bool)

(declare-fun Unit!1318 () Unit!1316)

(assert (=> b!11848 (= e!6706 (tuple3!213 Unit!1318 (array!871 (store (arr!381 (_3!228 lt!6100)) (bvsub jz!59 #b00000000000000000000000000000001) (ite (= (_4!122 lt!6100) #b00000000000000000000000000000000) (bvsub #b00000001000000000000000000000000 lt!6102) (bvsub #b00000000111111111111111111111111 lt!6102))) (size!381 (_3!228 lt!6100))) (_4!122 lt!6100)))))

(assert (=> b!11848 (= lt!6099 #b00000000000000000000000000000000)))

(declare-fun c!1451 () Bool)

(assert (=> b!11848 (= c!1451 (bvslt lt!6099 (bvsub jz!59 #b00000000000000000000000000000001)))))

(assert (=> b!11848 (= lt!6100 e!6713)))

(assert (=> b!11848 (= lt!6102 (select (arr!381 (_3!228 lt!6100)) (bvsub jz!59 #b00000000000000000000000000000001)))))

(declare-fun b!11850 () Bool)

(declare-fun e!6709 () Bool)

(declare-fun lt!6092 () (_ BitVec 32))

(declare-fun iq!194 () array!870)

(assert (=> b!11850 (= e!6709 (or (bvslt lt!6092 #b00000000000000000000000000000000) (bvsge lt!6092 (size!381 iq!194))))))

(assert (=> b!11850 (= lt!6092 (bvsub jz!59 #b00000000000000000000000000000001))))

(declare-fun lt!6094 () array!870)

(declare-fun e!6708 () tuple4!246)

(declare-fun b!11851 () Bool)

(declare-fun lt!6096 () (_ FloatingPoint 11 53))

(declare-fun computeModuloWhile!0 ((_ BitVec 32) array!872 array!870 (_ BitVec 32) (_ FloatingPoint 11 53)) tuple4!246)

(assert (=> b!11851 (= e!6708 (computeModuloWhile!0 jz!59 q!93 lt!6094 jz!59 lt!6096))))

(declare-fun b!11852 () Bool)

(declare-fun Unit!1319 () Unit!1316)

(assert (=> b!11852 (= e!6706 (tuple3!213 Unit!1319 (_2!292 lt!6101) lt!6093))))

(declare-fun b!11853 () Bool)

(declare-fun res!9371 () Bool)

(declare-fun e!6707 () Bool)

(assert (=> b!11853 (=> (not res!9371) (not e!6707))))

(declare-fun qInv!0 (array!872) Bool)

(assert (=> b!11853 (= res!9371 (qInv!0 q!93))))

(declare-fun res!9375 () Bool)

(assert (=> start!2291 (=> (not res!9375) (not e!6707))))

(assert (=> start!2291 (= res!9375 (and (bvsle #b00000000000000000000000000000010 jz!59) (bvslt jz!59 #b00000000000000000000000000010011)))))

(assert (=> start!2291 e!6707))

(assert (=> start!2291 true))

(declare-fun array_inv!330 (array!872) Bool)

(assert (=> start!2291 (array_inv!330 q!93)))

(declare-fun array_inv!331 (array!870) Bool)

(assert (=> start!2291 (array_inv!331 iq!194)))

(declare-fun b!11849 () Bool)

(declare-fun e!6712 () Bool)

(assert (=> b!11849 (= e!6712 e!6709)))

(declare-fun res!9374 () Bool)

(assert (=> b!11849 (=> (not res!9374) (not e!6709))))

(declare-fun lt!6097 () tuple3!212)

(declare-fun i!271 () (_ BitVec 32))

(declare-fun lt!6095 () Bool)

(assert (=> b!11849 (= res!9374 (and (bvsle #b00000000000000000000000000000000 (select (arr!381 (_2!293 lt!6097)) (bvsub jz!59 #b00000000000000000000000000000001))) (bvsle (select (arr!381 (_2!293 lt!6097)) (bvsub jz!59 #b00000000000000000000000000000001)) #b00000000100000000000000000000000) (or (not lt!6095) (not (= (_3!230 lt!6097) #b00000000000000000000000000000000)) (not (= (select (arr!381 (_2!293 lt!6097)) (bvsub jz!59 #b00000000000000000000000000000001)) #b00000000100000000000000000000000))) (bvsle (select (arr!381 (_2!293 lt!6097)) (bvsub jz!59 #b00000000000000000000000000000001)) #b00000000011111111111111111111111) (bvsle #b00000000000000000000000000000000 i!271) (bvsle i!271 jz!59)))))

(assert (=> b!11849 (= lt!6097 e!6706)))

(declare-fun c!1449 () Bool)

(assert (=> b!11849 (= c!1449 lt!6095)))

(assert (=> b!11849 (= lt!6093 #b00000000000000000000000000000000)))

(assert (=> b!11849 (= lt!6095 (bvsge (select (arr!381 (_2!292 lt!6101)) (bvsub jz!59 #b00000000000000000000000000000001)) #b00000000100000000000000000000000))))

(declare-fun b!11854 () Bool)

(declare-fun res!9373 () Bool)

(assert (=> b!11854 (=> (not res!9373) (not e!6709))))

(declare-fun iqInv!0 (array!870) Bool)

(assert (=> b!11854 (= res!9373 (iqInv!0 iq!194))))

(declare-fun b!11855 () Bool)

(declare-fun Unit!1320 () Unit!1316)

(assert (=> b!11855 (= e!6713 (tuple4!245 Unit!1320 lt!6099 (_2!292 lt!6101) lt!6093))))

(declare-fun b!11856 () Bool)

(assert (=> b!11856 (= e!6707 e!6712)))

(declare-fun res!9372 () Bool)

(assert (=> b!11856 (=> (not res!9372) (not e!6712))))

(declare-fun lt!6098 () (_ FloatingPoint 11 53))

(assert (=> b!11856 (= res!9372 (and (fp.leq (fp #b0 #b00000000000 #b0000000000000000000000000000000000000000000000000000) lt!6098) (fp.lt lt!6098 (fp #b0 #b10000000010 #b0000000000000000000000000000000000000000000000000000))))))

(assert (=> b!11856 (= lt!6098 (fp.sub roundNearestTiesToEven (_4!123 lt!6101) (fp.mul roundNearestTiesToEven (fp #b0 #b10000000010 #b0000000000000000000000000000000000000000000000000000) ((_ to_fp 11 53) roundNearestTiesToEven (ite (fp.isNaN (fp.mul roundNearestTiesToEven (_4!123 lt!6101) (fp #b0 #b01111111100 #b0000000000000000000000000000000000000000000000000000))) #b0000000000000000000000000000000000000000000000000000000000000000 (ite (fp.gt (fp.mul roundNearestTiesToEven (_4!123 lt!6101) (fp #b0 #b01111111100 #b0000000000000000000000000000000000000000000000000000)) ((_ to_fp 11 53) roundTowardZero #b0111111111111111111111111111111111111111111111111111111111111111)) #b0111111111111111111111111111111111111111111111111111111111111111 (ite (fp.lt (fp.mul roundNearestTiesToEven (_4!123 lt!6101) (fp #b0 #b01111111100 #b0000000000000000000000000000000000000000000000000000)) ((_ to_fp 11 53) roundTowardZero #b1000000000000000000000000000000000000000000000000000000000000000)) #b1000000000000000000000000000000000000000000000000000000000000000 ((_ fp.to_sbv 64) roundTowardZero (fp.mul roundNearestTiesToEven (_4!123 lt!6101) (fp #b0 #b01111111100 #b0000000000000000000000000000000000000000000000000000))))))))))))

(assert (=> b!11856 (= lt!6101 e!6708)))

(declare-fun c!1450 () Bool)

(assert (=> b!11856 (= c!1450 (bvsgt jz!59 #b00000000000000000000000000000000))))

(assert (=> b!11856 (= lt!6096 (select (arr!382 q!93) jz!59))))

(assert (=> b!11856 (= lt!6094 (array!871 ((as const (Array (_ BitVec 32) (_ BitVec 32))) #b00000000000000000000000000000000) #b00000000000000000000000000010100))))

(declare-fun b!11857 () Bool)

(declare-fun Unit!1321 () Unit!1316)

(assert (=> b!11857 (= e!6708 (tuple4!247 Unit!1321 lt!6094 jz!59 lt!6096))))

(assert (= (and start!2291 res!9375) b!11853))

(assert (= (and b!11853 res!9371) b!11856))

(assert (= (and b!11856 c!1450) b!11851))

(assert (= (and b!11856 (not c!1450)) b!11857))

(assert (= (and b!11856 res!9372) b!11849))

(assert (= (and b!11849 c!1449) b!11848))

(assert (= (and b!11849 (not c!1449)) b!11852))

(assert (= (and b!11848 c!1451) b!11847))

(assert (= (and b!11848 (not c!1451)) b!11855))

(assert (= (and b!11849 res!9374) b!11854))

(assert (= (and b!11854 res!9373) b!11850))

(declare-fun m!17957 () Bool)

(assert (=> b!11847 m!17957))

(declare-fun m!17959 () Bool)

(assert (=> start!2291 m!17959))

(declare-fun m!17961 () Bool)

(assert (=> start!2291 m!17961))

(declare-fun m!17963 () Bool)

(assert (=> b!11849 m!17963))

(declare-fun m!17965 () Bool)

(assert (=> b!11849 m!17965))

(declare-fun m!17967 () Bool)

(assert (=> b!11856 m!17967))

(declare-fun m!17969 () Bool)

(assert (=> b!11851 m!17969))

(declare-fun m!17971 () Bool)

(assert (=> b!11854 m!17971))

(declare-fun m!17973 () Bool)

(assert (=> b!11848 m!17973))

(declare-fun m!17975 () Bool)

(assert (=> b!11848 m!17975))

(declare-fun m!17977 () Bool)

(assert (=> b!11853 m!17977))

(check-sat (not b!11847) (not b!11854) (not b!11853) (not b!11851) (not start!2291))
(check-sat)
(get-model)

(declare-fun d!5105 () Bool)

(declare-fun res!9378 () Bool)

(declare-fun e!6716 () Bool)

(assert (=> d!5105 (=> (not res!9378) (not e!6716))))

(assert (=> d!5105 (= res!9378 (= (size!382 q!93) #b00000000000000000000000000010100))))

(assert (=> d!5105 (= (qInv!0 q!93) e!6716)))

(declare-fun b!11860 () Bool)

(declare-fun lambda!529 () Int)

(declare-fun all20!0 (array!872 Int) Bool)

(assert (=> b!11860 (= e!6716 (all20!0 q!93 lambda!529))))

(assert (= (and d!5105 res!9378) b!11860))

(declare-fun m!17979 () Bool)

(assert (=> b!11860 m!17979))

(assert (=> b!11853 d!5105))

(declare-fun lt!6124 () array!870)

(declare-fun e!6726 () tuple4!246)

(declare-fun lt!6126 () (_ FloatingPoint 11 53))

(declare-fun b!11881 () Bool)

(assert (=> b!11881 (= e!6726 (computeModuloWhile!0 jz!59 q!93 lt!6124 jz!59 lt!6126))))

(declare-fun b!11882 () Bool)

(declare-fun lt!6128 () (_ BitVec 32))

(declare-fun lt!6123 () array!870)

(declare-fun e!6727 () tuple4!244)

(declare-fun lt!6129 () (_ BitVec 32))

(assert (=> b!11882 (= e!6727 (computeModuloWhile!3 jz!59 q!93 lt!6129 lt!6123 lt!6128))))

(declare-fun b!11883 () Bool)

(declare-fun Unit!1322 () Unit!1316)

(assert (=> b!11883 (= e!6726 (tuple4!247 Unit!1322 lt!6124 jz!59 lt!6126))))

(declare-fun d!5107 () Bool)

(declare-fun e!6725 () Bool)

(assert (=> d!5107 e!6725))

(declare-fun res!9395 () Bool)

(assert (=> d!5107 (=> (not res!9395) (not e!6725))))

(declare-fun lt!6125 () tuple4!244)

(assert (=> d!5107 (= res!9395 (and (or (bvsgt #b00000000000000000000000000000000 (_2!291 lt!6125)) (= (bvand jz!59 #b10000000000000000000000000000000) #b00000000000000000000000000000000) (= (bvand jz!59 #b10000000000000000000000000000000) (bvand (bvsub jz!59 #b00000000000000000000000000000001) #b10000000000000000000000000000000))) (bvsle #b00000000000000000000000000000000 (_2!291 lt!6125)) (bvsle (_2!291 lt!6125) (bvsub jz!59 #b00000000000000000000000000000001))))))

(assert (=> d!5107 (= lt!6125 e!6727)))

(declare-fun c!1456 () Bool)

(assert (=> d!5107 (= c!1456 (bvslt lt!6129 (bvsub jz!59 #b00000000000000000000000000000001)))))

(assert (=> d!5107 (= lt!6129 (bvadd lt!6099 #b00000000000000000000000000000001))))

(declare-fun lt!6122 () (_ BitVec 32))

(assert (=> d!5107 (= lt!6128 (ite (and (= lt!6093 #b00000000000000000000000000000000) (not (= lt!6122 #b00000000000000000000000000000000))) #b00000000000000000000000000000001 lt!6093))))

(assert (=> d!5107 (= lt!6123 (array!871 (store (arr!381 (_2!292 lt!6101)) lt!6099 (ite (= lt!6093 #b00000000000000000000000000000000) (ite (not (= lt!6122 #b00000000000000000000000000000000)) (bvsub #b00000001000000000000000000000000 lt!6122) #b00000000000000000000000000000000) (bvsub #b00000000111111111111111111111111 lt!6122))) (size!381 (_2!292 lt!6101))))))

(assert (=> d!5107 (= lt!6122 (select (arr!381 (_2!292 lt!6101)) lt!6099))))

(declare-fun e!6728 () Bool)

(assert (=> d!5107 e!6728))

(declare-fun res!9392 () Bool)

(assert (=> d!5107 (=> (not res!9392) (not e!6728))))

(assert (=> d!5107 (= res!9392 (and (bvsle #b00000000000000000000000000000000 lt!6099) (bvsle lt!6099 (bvsub jz!59 #b00000000000000000000000000000001))))))

(declare-fun lt!6127 () tuple4!246)

(assert (=> d!5107 (= lt!6127 e!6726)))

(declare-fun c!1457 () Bool)

(assert (=> d!5107 (= c!1457 (bvsgt jz!59 #b00000000000000000000000000000000))))

(assert (=> d!5107 (= lt!6126 (select (arr!382 q!93) jz!59))))

(assert (=> d!5107 (= lt!6124 (array!871 ((as const (Array (_ BitVec 32) (_ BitVec 32))) #b00000000000000000000000000000000) #b00000000000000000000000000010100))))

(assert (=> d!5107 (= (computeModuloWhile!3 jz!59 q!93 lt!6099 (_2!292 lt!6101) lt!6093) lt!6125)))

(declare-fun b!11884 () Bool)

(assert (=> b!11884 (= e!6728 (and (bvsge (select (arr!381 (_2!292 lt!6101)) (bvsub jz!59 #b00000000000000000000000000000001)) #b00000000100000000000000000000000) (or (= lt!6093 #b00000000000000000000000000000000) (= lt!6093 #b00000000000000000000000000000001)) (bvslt lt!6099 (bvsub jz!59 #b00000000000000000000000000000001))))))

(declare-fun b!11885 () Bool)

(declare-fun Unit!1323 () Unit!1316)

(assert (=> b!11885 (= e!6727 (tuple4!245 Unit!1323 lt!6129 lt!6123 lt!6128))))

(declare-fun b!11886 () Bool)

(declare-fun res!9394 () Bool)

(assert (=> b!11886 (=> (not res!9394) (not e!6725))))

(declare-fun lt!6121 () (_ BitVec 32))

(assert (=> b!11886 (= res!9394 (bvsge (select (arr!381 (_3!228 lt!6125)) lt!6121) #b00000000100000000000000000000000))))

(assert (=> b!11886 (and (bvsge lt!6121 #b00000000000000000000000000000000) (bvslt lt!6121 (size!381 (_3!228 lt!6125))))))

(assert (=> b!11886 (= lt!6121 (bvsub jz!59 #b00000000000000000000000000000001))))

(assert (=> b!11886 (or (= (bvand jz!59 #b10000000000000000000000000000000) #b00000000000000000000000000000000) (= (bvand jz!59 #b10000000000000000000000000000000) (bvand (bvsub jz!59 #b00000000000000000000000000000001) #b10000000000000000000000000000000)))))

(declare-fun b!11887 () Bool)

(declare-fun res!9396 () Bool)

(assert (=> b!11887 (=> (not res!9396) (not e!6725))))

(assert (=> b!11887 (= res!9396 (or (= (_4!122 lt!6125) #b00000000000000000000000000000000) (= (_4!122 lt!6125) #b00000000000000000000000000000001)))))

(declare-fun b!11888 () Bool)

(declare-fun res!9393 () Bool)

(assert (=> b!11888 (=> (not res!9393) (not e!6728))))

(assert (=> b!11888 (= res!9393 (iqInv!0 (_2!292 lt!6101)))))

(declare-fun b!11889 () Bool)

(assert (=> b!11889 (= e!6725 (bvsge (_2!291 lt!6125) (bvsub jz!59 #b00000000000000000000000000000001)))))

(assert (=> b!11889 (or (= (bvand jz!59 #b10000000000000000000000000000000) #b00000000000000000000000000000000) (= (bvand jz!59 #b10000000000000000000000000000000) (bvand (bvsub jz!59 #b00000000000000000000000000000001) #b10000000000000000000000000000000)))))

(declare-fun b!11890 () Bool)

(declare-fun res!9391 () Bool)

(assert (=> b!11890 (=> (not res!9391) (not e!6725))))

(assert (=> b!11890 (= res!9391 (iqInv!0 (_3!228 lt!6125)))))

(assert (= (and d!5107 c!1457) b!11881))

(assert (= (and d!5107 (not c!1457)) b!11883))

(assert (= (and d!5107 res!9392) b!11888))

(assert (= (and b!11888 res!9393) b!11884))

(assert (= (and d!5107 c!1456) b!11882))

(assert (= (and d!5107 (not c!1456)) b!11885))

(assert (= (and d!5107 res!9395) b!11890))

(assert (= (and b!11890 res!9391) b!11886))

(assert (= (and b!11886 res!9394) b!11887))

(assert (= (and b!11887 res!9396) b!11889))

(declare-fun m!17981 () Bool)

(assert (=> b!11890 m!17981))

(declare-fun m!17983 () Bool)

(assert (=> b!11882 m!17983))

(declare-fun m!17985 () Bool)

(assert (=> b!11888 m!17985))

(declare-fun m!17987 () Bool)

(assert (=> b!11881 m!17987))

(assert (=> b!11884 m!17965))

(declare-fun m!17989 () Bool)

(assert (=> d!5107 m!17989))

(declare-fun m!17991 () Bool)

(assert (=> d!5107 m!17991))

(assert (=> d!5107 m!17967))

(declare-fun m!17993 () Bool)

(assert (=> b!11886 m!17993))

(assert (=> b!11847 d!5107))

(declare-fun b!11903 () Bool)

(declare-fun e!6735 () Bool)

(declare-fun lt!6140 () tuple4!246)

(assert (=> b!11903 (= e!6735 (bvsle (_3!229 lt!6140) #b00000000000000000000000000000000))))

(declare-fun b!11904 () Bool)

(declare-fun res!9406 () Bool)

(declare-fun e!6736 () Bool)

(assert (=> b!11904 (=> (not res!9406) (not e!6736))))

(assert (=> b!11904 (= res!9406 (iqInv!0 lt!6094))))

(declare-fun lt!6141 () (_ FloatingPoint 11 53))

(declare-fun lt!6144 () array!870)

(declare-fun lt!6143 () (_ BitVec 32))

(declare-fun e!6737 () tuple4!246)

(declare-fun b!11905 () Bool)

(declare-fun Unit!1324 () Unit!1316)

(assert (=> b!11905 (= e!6737 (tuple4!247 Unit!1324 lt!6144 lt!6143 lt!6141))))

(declare-fun b!11906 () Bool)

(assert (=> b!11906 (= e!6736 (bvsgt jz!59 #b00000000000000000000000000000000))))

(declare-fun d!5109 () Bool)

(assert (=> d!5109 e!6735))

(declare-fun res!9408 () Bool)

(assert (=> d!5109 (=> (not res!9408) (not e!6735))))

(assert (=> d!5109 (= res!9408 (and true true (bvsle #b00000000000000000000000000000000 (_3!229 lt!6140)) (bvsle (_3!229 lt!6140) jz!59) (fp.leq (fp #b0 #b00000000000 #b0000000000000000000000000000000000000000000000000000) (_4!123 lt!6140)) (fp.leq (_4!123 lt!6140) (fp #b0 #b10000110001 #b0100000000000000000000010011111111111111111111111100))))))

(assert (=> d!5109 (= lt!6140 e!6737)))

(declare-fun c!1460 () Bool)

(assert (=> d!5109 (= c!1460 (bvsgt lt!6143 #b00000000000000000000000000000000))))

(assert (=> d!5109 (= lt!6143 (bvsub jz!59 #b00000000000000000000000000000001))))

(declare-fun lt!6142 () (_ FloatingPoint 11 53))

(assert (=> d!5109 (= lt!6141 (fp.add roundNearestTiesToEven (select (arr!382 q!93) (bvsub jz!59 #b00000000000000000000000000000001)) lt!6142))))

(assert (=> d!5109 (= lt!6144 (array!871 (store (arr!381 lt!6094) (bvsub jz!59 jz!59) (ite (fp.isNaN (fp.sub roundNearestTiesToEven lt!6096 (fp.mul roundNearestTiesToEven (fp #b0 #b10000010111 #b0000000000000000000000000000000000000000000000000000) lt!6142))) #b00000000000000000000000000000000 (ite (fp.gt (fp.sub roundNearestTiesToEven lt!6096 (fp.mul roundNearestTiesToEven (fp #b0 #b10000010111 #b0000000000000000000000000000000000000000000000000000) lt!6142)) ((_ to_fp 11 53) roundTowardZero #b01111111111111111111111111111111)) #b01111111111111111111111111111111 (ite (fp.lt (fp.sub roundNearestTiesToEven lt!6096 (fp.mul roundNearestTiesToEven (fp #b0 #b10000010111 #b0000000000000000000000000000000000000000000000000000) lt!6142)) ((_ to_fp 11 53) roundTowardZero #b10000000000000000000000000000000)) #b10000000000000000000000000000000 ((_ fp.to_sbv 32) roundTowardZero (fp.sub roundNearestTiesToEven lt!6096 (fp.mul roundNearestTiesToEven (fp #b0 #b10000010111 #b0000000000000000000000000000000000000000000000000000) lt!6142))))))) (size!381 lt!6094)))))

(assert (=> d!5109 (= lt!6142 ((_ to_fp 11 53) roundNearestTiesToEven (ite (fp.isNaN (fp.mul roundNearestTiesToEven (fp #b0 #b01111100111 #b0000000000000000000000000000000000000000000000000000) lt!6096)) #b00000000000000000000000000000000 (ite (fp.gt (fp.mul roundNearestTiesToEven (fp #b0 #b01111100111 #b0000000000000000000000000000000000000000000000000000) lt!6096) ((_ to_fp 11 53) roundTowardZero #b01111111111111111111111111111111)) #b01111111111111111111111111111111 (ite (fp.lt (fp.mul roundNearestTiesToEven (fp #b0 #b01111100111 #b0000000000000000000000000000000000000000000000000000) lt!6096) ((_ to_fp 11 53) roundTowardZero #b10000000000000000000000000000000)) #b10000000000000000000000000000000 ((_ fp.to_sbv 32) roundTowardZero (fp.mul roundNearestTiesToEven (fp #b0 #b01111100111 #b0000000000000000000000000000000000000000000000000000) lt!6096)))))))))

(assert (=> d!5109 e!6736))

(declare-fun res!9407 () Bool)

(assert (=> d!5109 (=> (not res!9407) (not e!6736))))

(assert (=> d!5109 (= res!9407 (and (bvsle #b00000000000000000000000000000000 jz!59) (bvsle jz!59 jz!59) (fp.leq (fp #b0 #b00000000000 #b0000000000000000000000000000000000000000000000000000) lt!6096) (fp.leq lt!6096 (fp #b0 #b10000110001 #b0100000000000000000000010011111111111111111111111100))))))

(assert (=> d!5109 (= (computeModuloWhile!0 jz!59 q!93 lt!6094 jz!59 lt!6096) lt!6140)))

(declare-fun b!11907 () Bool)

(assert (=> b!11907 (= e!6737 (computeModuloWhile!0 jz!59 q!93 lt!6144 lt!6143 lt!6141))))

(declare-fun b!11908 () Bool)

(declare-fun res!9405 () Bool)

(assert (=> b!11908 (=> (not res!9405) (not e!6735))))

(assert (=> b!11908 (= res!9405 (iqInv!0 (_2!292 lt!6140)))))

(assert (= (and d!5109 res!9407) b!11904))

(assert (= (and b!11904 res!9406) b!11906))

(assert (= (and d!5109 c!1460) b!11907))

(assert (= (and d!5109 (not c!1460)) b!11905))

(assert (= (and d!5109 res!9408) b!11908))

(assert (= (and b!11908 res!9405) b!11903))

(declare-fun m!17995 () Bool)

(assert (=> b!11904 m!17995))

(declare-fun m!17997 () Bool)

(assert (=> d!5109 m!17997))

(declare-fun m!17999 () Bool)

(assert (=> d!5109 m!17999))

(declare-fun m!18001 () Bool)

(assert (=> b!11907 m!18001))

(declare-fun m!18003 () Bool)

(assert (=> b!11908 m!18003))

(assert (=> b!11851 d!5109))

(declare-fun d!5111 () Bool)

(assert (=> d!5111 (= (array_inv!330 q!93) (bvsge (size!382 q!93) #b00000000000000000000000000000000))))

(assert (=> start!2291 d!5111))

(declare-fun d!5113 () Bool)

(assert (=> d!5113 (= (array_inv!331 iq!194) (bvsge (size!381 iq!194) #b00000000000000000000000000000000))))

(assert (=> start!2291 d!5113))

(declare-fun d!5115 () Bool)

(declare-fun res!9411 () Bool)

(declare-fun e!6740 () Bool)

(assert (=> d!5115 (=> (not res!9411) (not e!6740))))

(assert (=> d!5115 (= res!9411 (= (size!381 iq!194) #b00000000000000000000000000010100))))

(assert (=> d!5115 (= (iqInv!0 iq!194) e!6740)))

(declare-fun b!11911 () Bool)

(declare-fun lambda!532 () Int)

(declare-fun all20Int!0 (array!870 Int) Bool)

(assert (=> b!11911 (= e!6740 (all20Int!0 iq!194 lambda!532))))

(assert (= (and d!5115 res!9411) b!11911))

(declare-fun m!18005 () Bool)

(assert (=> b!11911 m!18005))

(assert (=> b!11854 d!5115))

(check-sat (not b!11882) (not b!11908) (not b!11860) (not b!11907) (not b!11888) (not b!11904) (not b!11911) (not b!11890) (not b!11881))
(check-sat)
